
n_res = 4;
rcap = [67, 72, 1232, 1215];
rtype = [1, 1, 2, 2];
n_tasks = 100;
modes =  [{1, 2, 3, 4, 5, 6}, {7, 8, 9, 10, 11, 12}, {13, 14, 15, 16, 17, 18}, {19, 20, 21, 22, 23, 24}, {25, 26, 27, 28, 29, 30}, {31, 32, 33, 34, 35, 36}, {37, 38, 39, 40, 41, 42}, {43, 44, 45, 46, 47, 48}, {49, 50, 51, 52, 53, 54}, {55, 56, 57, 58, 59, 60}, {61, 62, 63, 64, 65, 66}, {67, 68, 69, 70, 71, 72}, {73, 74, 75, 76, 77, 78}, {79, 80, 81, 82, 83, 84}, {85, 86, 87, 88, 89, 90}, {91, 92, 93, 94, 95, 96}, {97, 98, 99, 100, 101, 102}, {103, 104, 105, 106, 107, 108}, {109, 110, 111, 112, 113, 114}, {115, 116, 117, 118, 119, 120}, {121, 122, 123, 124, 125, 126}, {127, 128, 129, 130, 131, 132}, {133, 134, 135, 136, 137, 138}, {139, 140, 141, 142, 143, 144}, {145, 146, 147, 148, 149, 150}, {151, 152, 153, 154, 155, 156}, {157, 158, 159, 160, 161, 162}, {163, 164, 165, 166, 167, 168}, {169, 170, 171, 172, 173, 174}, {175, 176, 177, 178, 179, 180}, {181, 182, 183, 184, 185, 186}, {187, 188, 189, 190, 191, 192}, {193, 194, 195, 196, 197, 198}, {199, 200, 201, 202, 203, 204}, {205, 206, 207, 208, 209, 210}, {211, 212, 213, 214, 215, 216}, {217, 218, 219, 220, 221, 222}, {223, 224, 225, 226, 227, 228}, {229, 230, 231, 232, 233, 234}, {235, 236, 237, 238, 239, 240}, {241, 242, 243, 244, 245, 246}, {247, 248, 249, 250, 251, 252}, {253, 254, 255, 256, 257, 258}, {259, 260, 261, 262, 263, 264}, {265, 266, 267, 268, 269, 270}, {271, 272, 273, 274, 275, 276}, {277, 278, 279, 280, 281, 282}, {283, 284, 285, 286, 287, 288}, {289, 290, 291, 292, 293, 294}, {295, 296, 297, 298, 299, 300}, {301, 302, 303, 304, 305, 306}, {307, 308, 309, 310, 311, 312}, {313, 314, 315, 316, 317, 318}, {319, 320, 321, 322, 323, 324}, {325, 326, 327, 328, 329, 330}, {331, 332, 333, 334, 335, 336}, {337, 338, 339, 340, 341, 342}, {343, 344, 345, 346, 347, 348}, {349, 350, 351, 352, 353, 354}, {355, 356, 357, 358, 359, 360}, {361, 362, 363, 364, 365, 366}, {367, 368, 369, 370, 371, 372}, {373, 374, 375, 376, 377, 378}, {379, 380, 381, 382, 383, 384}, {385, 386, 387, 388, 389, 390}, {391, 392, 393, 394, 395, 396}, {397, 398, 399, 400, 401, 402}, {403, 404, 405, 406, 407, 408}, {409, 410, 411, 412, 413, 414}, {415, 416, 417, 418, 419, 420}, {421, 422, 423, 424, 425, 426}, {427, 428, 429, 430, 431, 432}, {433, 434, 435, 436, 437, 438}, {439, 440, 441, 442, 443, 444}, {445, 446, 447, 448, 449, 450}, {451, 452, 453, 454, 455, 456}, {457, 458, 459, 460, 461, 462}, {463, 464, 465, 466, 467, 468}, {469, 470, 471, 472, 473, 474}, {475, 476, 477, 478, 479, 480}, {481, 482, 483, 484, 485, 486}, {487, 488, 489, 490, 491, 492}, {493, 494, 495, 496, 497, 498}, {499, 500, 501, 502, 503, 504}, {505, 506, 507, 508, 509, 510}, {511, 512, 513, 514, 515, 516}, {517, 518, 519, 520, 521, 522}, {523, 524, 525, 526, 527, 528}, {529, 530, 531, 532, 533, 534}, {535, 536, 537, 538, 539, 540}, {541, 542, 543, 544, 545, 546}, {547, 548, 549, 550, 551, 552}, {553, 554, 555, 556, 557, 558}, {559, 560, 561, 562, 563, 564}, {565, 566, 567, 568, 569, 570}, {571, 572, 573, 574, 575, 576}, {577, 578, 579, 580, 581, 582}, {583, 584, 585, 586, 587, 588}, {589, 590, 591, 592, 593, 594}, {595, 596, 597, 598, 599, 600}];
succ =  [{45, 42, 38, 36, 35, 33, 32, 29, 25, 23, 21, 18, 16}, {45, 43, 37, 36, 31, 29, 28, 27, 26, 25, 23}, {50, 46, 45, 42, 38, 37, 31, 30, 29, 25, 23, 21}, {46, 43, 37, 35, 29, 28, 26, 25, 23, 22}, {46, 45, 43, 38, 37, 36, 33, 25, 23, 21}, {43, 42, 39, 38, 36, 17, 16}, {56, 44, 43, 42, 41, 35, 24, 23, 16}, {58, 52, 50, 47, 46, 45, 43, 38, 36, 34, 31, 29}, {44, 41, 30, 24, 16}, {60, 55, 53, 52, 51, 49, 46, 42, 39, 38, 32, 29}, {59, 58, 55, 54, 52, 51, 48, 47, 43, 40, 38, 35, 31}, {56, 52, 51, 42, 32, 24, 23}, {54, 52, 46, 43, 42, 38, 23}, {54, 52, 50, 46, 44, 28, 23}, {69, 60, 58, 56, 54, 53, 51, 50, 48, 46, 45, 42, 40, 39}, {58, 50, 47, 46, 40, 37, 34, 31}, {56, 55, 53, 50, 49, 44, 29}, {100, 74, 61, 60, 59, 55, 54, 53, 50, 49, 43, 41, 39}, {60, 58, 52, 40, 24}, {61, 60, 58, 55, 54, 48, 44, 43, 41, 40}, {77, 66, 61, 60, 59, 58, 56, 54, 53, 52, 51, 48, 44}, {79, 66, 64, 59, 58, 57, 55, 53, 52, 48, 38}, {69, 58, 53, 40, 34}, {77, 74, 71, 69, 68, 65, 62, 61, 59, 57, 54, 53, 49, 48}, {74, 66, 61, 54, 51, 47, 44, 39}, {79, 68, 65, 64, 60, 59, 58, 57, 50, 48, 44}, {99, 79, 71, 60, 53, 51, 49, 46, 42}, {100, 99, 77, 69, 68, 63, 60, 55, 53, 49, 40}, {83, 77, 69, 68, 66, 61, 59, 54, 48, 40}, {100, 79, 76, 75, 74, 69, 68, 67, 66, 65, 64, 63, 62, 61, 57, 55, 53}, {100, 99, 79, 77, 76, 74, 70, 68, 67, 65, 62, 61, 53, 49}, {86, 85, 83, 79, 77, 69, 68, 65, 64, 62, 58, 57, 50}, {99, 84, 71, 68, 55, 50, 48, 47}, {99, 98, 79, 77, 68, 66, 60, 59, 57, 55, 48}, {99, 98, 85, 84, 77, 74, 70, 68, 64, 60, 50}, {100, 86, 85, 83, 82, 81, 77, 75, 73, 68, 67, 65, 57, 54}, {86, 85, 83, 79, 76, 74, 70, 66, 62, 59, 52}, {100, 83, 76, 74, 73, 68, 44}, {99, 98, 85, 83, 82, 81, 76, 75, 71, 68, 65, 64, 63, 57}, {85, 82, 81, 76, 75, 73, 67, 65, 64, 62, 57}, {97, 96, 86, 83, 77, 72, 69, 67, 66, 65, 62}, {96, 81, 78, 76, 75, 74, 72, 68, 67, 66, 63, 59}, {97, 96, 86, 85, 84, 83, 78, 76, 75, 68, 67, 66, 63}, {97, 96, 86, 85, 82, 78, 75, 71, 69, 67, 62}, {100, 98, 85, 83, 82, 81, 76, 75, 70, 67, 65}, {86, 84, 83, 81, 78, 77, 76, 74, 70, 61}, {96, 86, 85, 83, 77, 73, 72, 69, 65}, {100, 94, 85, 82, 81, 78, 76, 70, 67, 63}, {98, 95, 86, 85, 83, 81, 75, 66, 64}, {97, 96, 81, 78, 76, 75, 72, 67, 66}, {100, 96, 86, 75, 72, 62}, {99, 96, 93, 88, 69, 65}, {97, 96, 94, 93, 92, 89, 84, 83, 81, 78}, {99, 98, 97, 96, 95, 94, 91, 87, 79, 72}, {97, 94, 92, 86, 83, 82, 72, 70}, {98, 97, 96, 95, 94, 91, 89, 80, 74}, {97, 95, 94, 92, 91, 87, 72, 70}, {99, 96, 94, 91, 80, 74, 72}, {97, 94, 93, 84, 82, 80, 73}, {95, 90, 83, 82, 76, 75, 73}, {97, 95, 94, 92, 87, 80, 72}, {98, 95, 94, 91, 87, 84, 80}, {95, 92, 87, 80, 73}, {94, 87, 80, 72}, {94, 91, 89, 87, 78}, {93, 82, 73}, {95, 93, 90, 89, 88, 87}, {92, 91, 89, 88, 87}, {98, 92, 91, 81}, {96, 93, 90, 88}, {93, 92, 90, 89}, {93, 89, 88}, {91, 89, 88}, {92, 88, 87}, {92, 89}, {89, 88}, {95, 87}, {80}, {80}, {90}, {87}, {87}, {91}, {88}, {90}, {91}, {}, {}, {}, {}, {}, {}, {}, {}, {}, {}, {}, {}, {}, {}];
n_opt = 600;
dur = [2, 5, 10, 13, 19, 20, 1, 2, 5, 9, 13, 20, 1, 3, 5, 8, 9, 16, 1, 3, 4, 5, 8, 14, 10, 11, 12, 13, 14, 18, 2, 3, 9, 12, 16, 19, 3, 4, 5, 15, 17, 20, 2, 7, 8, 9, 11, 18, 3, 15, 16, 17, 19, 20, 2, 3, 8, 17, 18, 19, 3, 9, 12, 13, 17, 19, 3, 6, 9, 10, 15, 19, 8, 14, 16, 17, 18, 20, 2, 12, 13, 14, 15, 16, 1, 2, 4, 6, 8, 12, 4, 7, 9, 10, 14, 18, 2, 4, 6, 7, 17, 19, 7, 10, 12, 14, 17, 18, 4, 5, 6, 9, 11, 12, 2, 13, 14, 16, 17, 19, 6, 7, 13, 15, 19, 20, 2, 8, 11, 13, 14, 16, 1, 4, 6, 12, 13, 14, 1, 8, 9, 10, 19, 20, 2, 8, 9, 10, 19, 20, 1, 3, 4, 12, 17, 20, 2, 8, 9, 11, 16, 19, 2, 3, 7, 18, 19, 20, 6, 8, 9, 11, 13, 15, 2, 12, 13, 15, 16, 19, 1, 5, 9, 11, 14, 18, 1, 3, 12, 14, 19, 20, 7, 9, 10, 14, 15, 20, 1, 2, 4, 15, 16, 19, 5, 6, 9, 11, 19, 20, 2, 3, 7, 11, 12, 16, 7, 8, 9, 11, 12, 13, 2, 6, 11, 12, 13, 16, 4, 5, 12, 15, 19, 20, 3, 4, 9, 10, 18, 20, 3, 4, 5, 13, 14, 15, 2, 6, 9, 12, 16, 19, 3, 7, 13, 14, 16, 18, 6, 13, 15, 18, 19, 20, 5, 8, 10, 12, 14, 19, 3, 4, 5, 7, 12, 17, 6, 8, 10, 11, 14, 17, 4, 5, 7, 8, 9, 20, 1, 2, 3, 5, 7, 20, 3, 4, 6, 8, 12, 13, 3, 4, 10, 11, 13, 16, 1, 3, 6, 8, 10, 12, 1, 3, 5, 6, 7, 15, 2, 5, 6, 7, 13, 17, 3, 5, 7, 11, 12, 20, 7, 9, 10, 11, 12, 17, 2, 6, 7, 8, 16, 18, 4, 5, 6, 12, 15, 17, 5, 6, 10, 11, 12, 13, 4, 5, 11, 13, 14, 18, 1, 2, 13, 17, 18, 19, 2, 5, 7, 8, 11, 18, 3, 4, 7, 14, 15, 17, 5, 7, 8, 11, 12, 13, 3, 5, 12, 13, 14, 17, 2, 5, 6, 7, 8, 13, 7, 11, 16, 17, 18, 20, 6, 11, 14, 16, 17, 20, 2, 3, 5, 8, 16, 19, 4, 7, 8, 12, 13, 15, 1, 2, 6, 8, 11, 13, 6, 13, 14, 15, 16, 17, 3, 4, 8, 12, 13, 19, 9, 10, 11, 14, 15, 17, 2, 9, 10, 11, 12, 17, 3, 5, 9, 13, 16, 19, 2, 7, 16, 17, 18, 20, 2, 4, 5, 14, 18, 20, 2, 11, 12, 13, 19, 20, 1, 5, 6, 10, 18, 19, 4, 7, 8, 9, 12, 16, 4, 6, 7, 11, 12, 18, 4, 5, 10, 11, 13, 20, 1, 6, 8, 9, 12, 19, 5, 8, 12, 14, 15, 16, 1, 3, 13, 14, 17, 18, 4, 12, 14, 15, 16, 20, 3, 7, 9, 11, 15, 16, 2, 3, 6, 8, 9, 14, 2, 3, 4, 11, 14, 15, 5, 6, 7, 11, 12, 16, 2, 6, 7, 8, 13, 16, 4, 8, 9, 10, 12, 19, 3, 4, 5, 6, 7, 14, 1, 2, 4, 6, 13, 18, 2, 3, 4, 5, 7, 8, 4, 5, 7, 9, 10, 20, 3, 5, 6, 8, 10, 12, 5, 8, 12, 13, 14, 19, 6, 7, 10, 11, 12, 13];
rreq = [|18, 17, 15, 14, 11, 11, 15, 12, 11, 9, 7, 6, 4, 4, 4, 4, 4, 4, 14, 13, 13, 13, 13, 13, 8, 8, 8, 8, 8, 8, 15, 13, 10, 10, 8, 6, 7, 7, 6, 5, 4, 3, 3, 3, 3, 3, 2, 2, 10, 10, 9, 7, 5, 4, 11, 10, 10, 9, 6, 5, 16, 13, 10, 9, 6, 5, 18, 16, 15, 14, 12, 11, 12, 9, 9, 6, 5, 3, 13, 13, 13, 13, 13, 13, 4, 4, 4, 4, 4, 4, 19, 18, 18, 17, 15, 15, 20, 14, 13, 9, 8, 4, 7, 6, 6, 3, 3, 1, 9, 9, 7, 6, 5, 4, 16, 12, 11, 7, 6, 3, 10, 9, 8, 8, 7, 5, 19, 14, 13, 12, 8, 6, 15, 14, 13, 11, 10, 9, 18, 17, 16, 14, 13, 12, 5, 5, 5, 5, 5, 5, 19, 14, 12, 11, 5, 4, 12, 12, 12, 12, 12, 12, 6, 5, 3, 3, 2, 1, 5, 4, 4, 4, 4, 4, 3, 3, 3, 2, 2, 1, 16, 14, 12, 11, 9, 6, 7, 7, 7, 7, 7, 7, 7, 6, 6, 6, 6, 6, 17, 16, 14, 12, 9, 6, 18, 17, 17, 16, 15, 15, 11, 8, 8, 6, 4, 2, 19, 19, 19, 18, 18, 17, 18, 18, 17, 17, 16, 16, 12, 11, 10, 8, 7, 6, 15, 15, 14, 12, 10, 10, 17, 15, 14, 13, 12, 12, 10, 8, 7, 5, 4, 1, 6, 6, 6, 5, 4, 4, 15, 13, 11, 10, 9, 6, 15, 14, 10, 8, 8, 6, 2, 1, 1, 1, 1, 1, 17, 16, 10, 9, 6, 3, 8, 5, 5, 4, 2, 1, 17, 14, 14, 12, 9, 8, 18, 17, 16, 16, 15, 15, 16, 15, 13, 13, 11, 11, 19, 18, 17, 17, 17, 16, 19, 18, 18, 17, 17, 17, 16, 15, 15, 15, 15, 15, 10, 10, 9, 9, 9, 8, 6, 5, 4, 4, 3, 1, 19, 19, 19, 18, 18, 18, 20, 18, 18, 17, 15, 14, 4, 4, 4, 3, 2, 2, 16, 14, 12, 11, 9, 6, 10, 10, 10, 9, 8, 8, 18, 17, 17, 17, 16, 16, 15, 11, 9, 7, 6, 3, 3, 3, 3, 3, 2, 2, 14, 10, 9, 5, 4, 3, 6, 4, 3, 3, 2, 1, 16, 12, 9, 9, 5, 4, 8, 8, 8, 8, 8, 8, 16, 15, 14, 14, 13, 12, 8, 7, 6, 6, 3, 2, 14, 13, 12, 11, 9, 8, 12, 11, 11, 9, 6, 6, 15, 13, 12, 11, 9, 6, 9, 8, 8, 8, 7, 7, 2, 2, 2, 2, 2, 2, 8, 7, 6, 5, 4, 3, 9, 6, 6, 4, 4, 2, 18, 18, 15, 15, 13, 10, 10, 9, 9, 8, 8, 8, 14, 13, 13, 11, 11, 9, 17, 17, 16, 15, 12, 12, 13, 11, 11, 9, 8, 7, 19, 18, 17, 17, 15, 15, 15, 15, 13, 13, 12, 10, 7, 6, 6, 6, 5, 5, 7, 6, 6, 6, 5, 5, 15, 11, 11, 7, 5, 5, 14, 14, 13, 13, 12, 11, 6, 5, 5, 4, 4, 3, 13, 13, 12, 10, 9, 9, 8, 7, 7, 6, 4, 4, 12, 11, 11, 9, 8, 7, 15, 12, 10, 9, 7, 6, 9, 9, 9, 8, 8, 7, 19, 17, 15, 15, 13, 11, 16, 13, 12, 11, 11, 9, 5, 4, 4, 3, 3, 2, 14, 10, 9, 8, 7, 5, 18, 14, 13, 13, 9, 9, 13, 12, 11, 11, 9, 9
 |15, 14, 14, 11, 9, 8, 14, 11, 11, 6, 6, 1, 9, 8, 8, 8, 8, 8, 14, 12, 10, 9, 6, 5, 11, 11, 11, 11, 10, 10, 19, 19, 18, 17, 17, 16, 2, 1, 1, 1, 1, 1, 9, 8, 7, 6, 5, 5, 17, 17, 15, 13, 12, 11, 10, 9, 9, 9, 8, 8, 17, 15, 10, 9, 5, 3, 18, 16, 16, 16, 15, 14, 19, 18, 16, 14, 14, 12, 14, 12, 12, 11, 9, 9, 6, 4, 3, 2, 2, 1, 19, 18, 18, 17, 17, 17, 10, 9, 6, 6, 2, 1, 14, 13, 11, 11, 9, 8, 19, 14, 11, 8, 6, 3, 11, 9, 7, 6, 5, 3, 19, 16, 15, 13, 10, 9, 11, 10, 10, 9, 9, 8, 11, 11, 7, 6, 3, 3, 18, 14, 12, 9, 6, 4, 18, 17, 15, 14, 14, 13, 12, 10, 9, 7, 6, 6, 17, 16, 16, 15, 15, 15, 15, 14, 14, 14, 12, 12, 13, 11, 9, 8, 7, 5, 18, 16, 14, 12, 8, 8, 11, 10, 8, 6, 5, 4, 5, 4, 4, 4, 2, 2, 17, 16, 15, 14, 12, 12, 18, 18, 16, 14, 13, 12, 18, 16, 10, 9, 5, 3, 5, 5, 5, 5, 5, 5, 16, 16, 15, 12, 12, 11, 11, 10, 8, 7, 5, 5, 20, 14, 14, 9, 6, 2, 15, 15, 15, 15, 15, 15, 15, 14, 11, 10, 8, 7, 6, 6, 6, 6, 6, 6, 12, 11, 11, 10, 10, 9, 7, 6, 6, 5, 5, 4, 13, 12, 10, 9, 8, 7, 11, 11, 9, 9, 7, 6, 17, 15, 14, 14, 12, 11, 18, 16, 16, 14, 11, 10, 15, 12, 11, 10, 6, 5, 11, 10, 9, 9, 9, 8, 13, 12, 12, 12, 12, 12, 15, 15, 14, 12, 12, 10, 20, 17, 14, 9, 7, 4, 16, 15, 13, 10, 8, 8, 14, 14, 13, 13, 12, 11, 6, 6, 6, 6, 6, 6, 7, 6, 4, 3, 2, 1, 14, 14, 14, 14, 14, 14, 12, 12, 11, 9, 9, 8, 7, 6, 4, 4, 2, 2, 13, 12, 12, 12, 12, 12, 18, 17, 17, 17, 17, 17, 8, 8, 6, 4, 3, 3, 18, 13, 11, 9, 7, 6, 7, 7, 6, 6, 5, 5, 16, 16, 13, 11, 8, 6, 2, 2, 2, 2, 2, 2, 18, 18, 17, 15, 14, 14, 10, 9, 9, 7, 7, 6, 18, 16, 15, 15, 11, 11, 15, 10, 10, 8, 5, 2, 16, 13, 11, 11, 8, 6, 8, 8, 8, 8, 8, 8, 18, 17, 15, 14, 13, 12, 19, 14, 12, 11, 7, 5, 12, 10, 10, 8, 7, 7, 9, 9, 7, 5, 2, 1, 16, 14, 13, 10, 10, 8, 16, 13, 12, 8, 6, 5, 13, 12, 10, 9, 8, 6, 12, 12, 10, 9, 9, 7, 5, 4, 4, 4, 4, 4, 5, 5, 5, 5, 5, 5, 12, 11, 10, 10, 10, 9, 18, 17, 16, 15, 14, 14, 18, 17, 16, 16, 16, 15, 14, 14, 10, 9, 8, 6, 14, 13, 12, 12, 10, 10, 18, 17, 17, 14, 13, 12, 20, 17, 17, 16, 13, 13, 19, 19, 17, 16, 16, 15, 12, 9, 8, 7, 5, 3, 16, 13, 10, 8, 5, 3, 4, 3, 3, 3, 2, 2, 20, 19, 19, 19, 19, 19, 7, 6, 6, 6, 5, 5, 18, 15, 11, 10, 6, 2, 16, 13, 11, 10, 8, 7, 16, 13, 11, 8, 6, 5, 14, 14, 12, 12, 11, 10
 |6, 5, 5, 5, 4, 4, 13, 11, 10, 10, 9, 7, 20, 17, 16, 13, 13, 10, 10, 9, 8, 7, 5, 3, 18, 16, 15, 15, 14, 12, 11, 10, 8, 7, 6, 4, 16, 12, 11, 10, 7, 5, 19, 15, 14, 11, 10, 7, 13, 13, 13, 13, 13, 13, 16, 14, 12, 11, 9, 8, 9, 8, 8, 7, 6, 5, 17, 17, 17, 17, 17, 17, 8, 7, 7, 6, 6, 5, 8, 8, 7, 7, 7, 6, 5, 4, 3, 2, 2, 1, 11, 9, 8, 8, 6, 6, 4, 4, 4, 3, 3, 2, 16, 15, 15, 15, 14, 14, 16, 12, 12, 9, 7, 4, 16, 15, 15, 14, 13, 13, 18, 17, 17, 17, 17, 17, 16, 16, 15, 14, 13, 11, 19, 16, 11, 8, 7, 5, 16, 15, 14, 13, 12, 11, 14, 13, 13, 12, 12, 11, 17, 16, 15, 15, 13, 13, 5, 4, 4, 3, 3, 3, 18, 17, 14, 12, 10, 9, 3, 3, 3, 2, 2, 1, 12, 11, 9, 8, 5, 4, 9, 6, 6, 5, 3, 2, 15, 14, 13, 11, 10, 9, 10, 10, 10, 10, 10, 10, 15, 15, 15, 14, 14, 13, 11, 9, 8, 7, 6, 6, 19, 19, 19, 19, 19, 19, 18, 18, 16, 15, 15, 14, 15, 15, 12, 12, 8, 7, 1, 1, 1, 1, 1, 1, 15, 12, 9, 8, 3, 1, 10, 10, 8, 8, 6, 6, 13, 11, 11, 10, 7, 5, 20, 18, 18, 16, 16, 15, 18, 16, 16, 15, 15, 14, 12, 11, 10, 9, 9, 8, 7, 7, 6, 5, 5, 4, 18, 18, 17, 16, 14, 14, 16, 12, 12, 7, 5, 2, 16, 15, 13, 13, 12, 11, 19, 16, 16, 13, 13, 11, 3, 3, 3, 3, 3, 3, 18, 18, 18, 18, 18, 18, 7, 6, 4, 3, 2, 2, 19, 17, 16, 15, 15, 14, 19, 17, 17, 15, 14, 14, 7, 6, 5, 5, 3, 3, 19, 16, 15, 14, 13, 12, 18, 17, 16, 13, 13, 11, 19, 16, 14, 10, 6, 5, 16, 15, 15, 14, 14, 14, 18, 15, 14, 13, 12, 12, 13, 10, 10, 7, 4, 3, 14, 13, 13, 12, 12, 12, 19, 15, 12, 10, 10, 8, 13, 12, 10, 10, 8, 8, 19, 19, 18, 16, 16, 15, 20, 19, 18, 18, 16, 16, 17, 15, 12, 11, 6, 3, 4, 4, 3, 3, 2, 2, 20, 14, 12, 9, 8, 4, 4, 4, 4, 3, 3, 3, 13, 10, 9, 7, 6, 5, 11, 11, 10, 10, 10, 9, 10, 8, 5, 4, 4, 2, 4, 4, 4, 3, 2, 2, 15, 15, 13, 10, 8, 5, 15, 15, 14, 14, 14, 13, 14, 13, 13, 12, 11, 11, 19, 16, 16, 13, 13, 11, 6, 4, 4, 4, 3, 2, 17, 17, 16, 16, 16, 15, 10, 10, 10, 9, 9, 9, 19, 18, 17, 16, 16, 15, 11, 8, 7, 4, 3, 2, 6, 6, 5, 5, 5, 4, 18, 18, 18, 18, 17, 17, 7, 5, 5, 5, 3, 3, 16, 12, 11, 7, 3, 1, 18, 15, 13, 12, 8, 6, 13, 11, 7, 5, 3, 3, 15, 13, 11, 8, 7, 4, 15, 15, 14, 13, 13, 12, 19, 16, 16, 12, 10, 10, 20, 15, 14, 12, 9, 7, 11, 11, 11, 11, 10, 10, 15, 15, 15, 15, 14, 14, 17, 17, 14, 12, 11, 9, 14, 11, 9, 7, 6, 4, 17, 14, 13, 13, 11, 10, 14, 14, 13, 13, 12, 12
 |17, 15, 12, 11, 9, 9, 12, 12, 9, 8, 8, 5, 18, 14, 13, 11, 10, 8, 12, 11, 11, 10, 10, 10, 17, 17, 17, 16, 16, 16, 10, 8, 7, 7, 5, 3, 20, 19, 18, 18, 16, 16, 7, 6, 4, 3, 3, 1, 9, 8, 7, 5, 5, 4, 17, 16, 16, 14, 14, 13, 19, 18, 17, 16, 14, 13, 17, 15, 12, 8, 7, 5, 11, 10, 10, 9, 9, 9, 11, 10, 10, 10, 10, 10, 7, 6, 5, 4, 2, 1, 9, 7, 7, 6, 5, 3, 12, 11, 10, 10, 9, 9, 18, 15, 14, 12, 11, 11, 16, 14, 13, 13, 11, 11, 11, 10, 10, 10, 9, 9, 7, 5, 4, 4, 2, 2, 19, 18, 17, 16, 16, 15, 15, 14, 13, 11, 10, 8, 11, 9, 7, 5, 5, 3, 14, 13, 12, 9, 8, 7, 20, 19, 19, 19, 19, 19, 18, 18, 17, 18, 17, 16, 15, 15, 12, 10, 8, 6, 18, 17, 17, 16, 16, 16, 6, 5, 4, 4, 3, 2, 13, 10, 9, 6, 5, 3, 18, 18, 18, 17, 17, 16, 14, 13, 11, 10, 8, 7, 15, 15, 15, 15, 15, 15, 10, 8, 8, 6, 6, 5, 3, 2, 1, 2, 2, 2, 16, 15, 15, 15, 14, 15, 16, 13, 13, 9, 7, 3, 16, 12, 12, 7, 7, 4, 18, 17, 11, 10, 6, 4, 8, 7, 6, 6, 5, 5, 18, 16, 14, 13, 10, 10, 14, 11, 10, 9, 8, 6, 12, 10, 7, 7, 5, 3, 15, 13, 10, 8, 5, 5, 19, 18, 18, 18, 18, 18, 11, 10, 9, 7, 4, 4, 11, 10, 8, 6, 3, 3, 5, 4, 3, 3, 2, 2, 5, 5, 4, 4, 2, 2, 19, 18, 19, 18, 17, 16, 18, 16, 16, 16, 15, 14, 9, 9, 9, 9, 9, 9, 15, 12, 12, 8, 8, 6, 16, 15, 13, 13, 11, 8, 6, 4, 4, 3, 3, 2, 19, 19, 18, 18, 17, 17, 16, 14, 12, 12, 10, 9, 17, 14, 12, 11, 9, 7, 15, 14, 13, 11, 11, 10, 16, 14, 12, 11, 9, 8, 18, 15, 12, 9, 4, 3, 16, 15, 11, 10, 7, 7, 7, 7, 7, 7, 7, 7, 2, 2, 2, 2, 2, 2, 15, 15, 14, 13, 10, 10, 14, 10, 8, 7, 6, 3, 7, 5, 4, 4, 2, 2, 6, 6, 5, 5, 5, 4, 18, 15, 13, 11, 10, 7, 19, 18, 18, 17, 17, 17, 16, 16, 15, 13, 13, 12, 11, 9, 9, 7, 6, 5, 15, 14, 14, 12, 11, 11, 20, 17, 11, 10, 7, 4, 10, 9, 8, 7, 7, 6, 20, 19, 18, 17, 15, 14, 19, 19, 19, 19, 18, 18, 14, 14, 14, 14, 14, 14, 20, 16, 13, 12, 9, 8, 18, 16, 13, 11, 9, 6, 18, 17, 16, 14, 14, 13, 18, 17, 17, 17, 17, 17, 7, 7, 7, 7, 7, 7, 18, 16, 16, 14, 14, 13, 13, 11, 10, 9, 7, 4, 17, 16, 14, 14, 13, 12, 13, 10, 7, 5, 4, 2, 14, 14, 14, 14, 14, 14, 7, 7, 6, 4, 3, 2, 13, 11, 11, 10, 9, 7, 4, 4, 4, 4, 4, 4, 15, 13, 12, 12, 10, 7, 16, 13, 10, 8, 6, 4, 3, 3, 3, 2, 3, 3, 13, 10, 9, 8, 8, 6, 2, 1, 1, 1, 1, 1, 19, 15, 13, 9, 5, 4, 13, 13, 13, 13, 12, 12, 11, 11, 8, 7, 6, 3|];